NAME 
ROWS
 N  OBJ
 L  R0      
 L  R1      
 E  R2      
 E  R3      
 E  R4      
 E  R5      
 E  R6      
 E  R7      
 E  R8      
 E  R9      
 E  R10     
 E  R11     
 E  R12     
 E  R13     
 E  R14     
 E  R15     
 E  R16     
 E  R17     
 E  R18     
 E  R19     
 E  R20     
 E  R21     
COLUMNS
    MARKER    'MARKER'                 'INTORG'
    I0(9)     OBJ       27
    I0(9)     R0        -200
    I0(9)     R1        130
    I0(9)     R2        -1
    I0(9)     R3        5
    I0(9)     R8        15
    I0(9)     R9        2
    I0(9)     R12       -1
    I0(9)     R13       3
    I0(9)     R21       1
    I1(12)    OBJ       -60
    I1(12)    R0        42
    I1(12)    R1        22
    I1(12)    R3        2
    I1(12)    R4        15
    I1(12)    R5        3
    I1(12)    R6        18
    I1(12)    R7        18
    I1(12)    R8        5
    I1(12)    R9        16
    I1(12)    R11       7
    I1(12)    R12       4
    I1(12)    R21       1
    I2(7)     OBJ       91
    I2(7)     R0        113
    I2(7)     R1        50
    I2(7)     R3        -1
    I2(7)     R9        18
    I2(7)     R10       9
    I2(7)     R11       13
    I2(7)     R21       1
    I3(9)     OBJ       121
    I3(9)     R0        83
    I3(9)     R1        -175
    I3(9)     R3        2
    I3(9)     R5        19
    I3(9)     R7        3
    I3(9)     R11       4
    I3(9)     R12       1
    I3(9)     R13       19
    I3(9)     R21       1
    I4(7)     OBJ       -165
    I4(7)     R0        155
    I4(7)     R1        14
    I4(7)     R5        18
    I4(7)     R8        -1
    I4(7)     R9        11
    I4(7)     R11       14
    I4(7)     R21       1
    I5(10)    OBJ       -47
    I5(10)    R0        188
    I5(10)    R1        -102
    I5(10)    R2        19
    I5(10)    R4        19
    I5(10)    R5        6
    I5(10)    R8        7
    I5(10)    R11       3
    I5(10)    R12       15
    I5(10)    R13       5
    I5(10)    R21       1
    I6(7)     OBJ       127
    I6(7)     R0        56
    I6(7)     R1        148
    I6(7)     R6        7
    I6(7)     R7        16
    I6(7)     R10       19
    I6(7)     R12       17
    I6(7)     R21       1
    I7(9)     OBJ       -12
    I7(9)     R0        -174
    I7(9)     R1        -64
    I7(9)     R3        6
    I7(9)     R4        11
    I7(9)     R6        6
    I7(9)     R10       2
    I7(9)     R11       17
    I7(9)     R13       4
    I7(9)     R21       1
    I8(7)     OBJ       -148
    I8(7)     R0        -20
    I8(7)     R1        147
    I8(7)     R2        13
    I8(7)     R3        3
    I8(7)     R4        11
    I8(7)     R10       2
    I8(7)     R21       1
    I9(10)    OBJ       -18
    I9(10)    R0        133
    I9(10)    R1        135
    I9(10)    R3        14
    I9(10)    R4        10
    I9(10)    R6        4
    I9(10)    R7        7
    I9(10)    R8        -1
    I9(10)    R9        1
    I9(10)    R11       -1
    I9(10)    R21       1
    I10(8)    OBJ       35
    I10(8)    R0        -182
    I10(8)    R1        -52
    I10(8)    R5        18
    I10(8)    R6        14
    I10(8)    R8        11
    I10(8)    R11       9
    I10(8)    R13       -1
    I10(8)    R21       1
    I11(13)   OBJ       47
    I11(13)   R0        32
    I11(13)   R1        -51
    I11(13)   R2        9
    I11(13)   R5        16
    I11(13)   R6        13
    I11(13)   R7        5
    I11(13)   R8        5
    I11(13)   R9        14
    I11(13)   R10       12
    I11(13)   R11       11
    I11(13)   R12       12
    I11(13)   R13       4
    I11(13)   R21       1
    MARKER    'MARKER'                 'INTEND'
    C12(10)   OBJ       9
    C12(10)   R1        4
    C12(10)   R5        8
    C12(10)   R7        4
    C12(10)   R8        6
    C12(10)   R9        2
    C12(10)   R10       13
    C12(10)   R12       1
    C12(10)   R13       16
    C12(10)   R15       3
    C12(10)   R18       11
    C13(14)   OBJ       -7
    C13(14)   R0        -6
    C13(14)   R1        5
    C13(14)   R2        4
    C13(14)   R3        17
    C13(14)   R4        11
    C13(14)   R6        3
    C13(14)   R7        5
    C13(14)   R8        9
    C13(14)   R9        4
    C13(14)   R10       17
    C13(14)   R12       18
    C13(14)   R13       16
    C13(14)   R18       6
    C13(14)   R20       3
    C14(11)   OBJ       -5
    C14(11)   R0        7
    C14(11)   R1        7
    C14(11)   R2        9
    C14(11)   R5        12
    C14(11)   R7        12
    C14(11)   R9        18
    C14(11)   R12       18
    C14(11)   R14       19
    C14(11)   R16       2
    C14(11)   R19       7
    C14(11)   R20       13
    C15(13)   OBJ       -3
    C15(13)   R0        -8
    C15(13)   R1        -4
    C15(13)   R3        2
    C15(13)   R5        11
    C15(13)   R6        19
    C15(13)   R7        13
    C15(13)   R9        17
    C15(13)   R13       9
    C15(13)   R14       1
    C15(13)   R15       14
    C15(13)   R18       9
    C15(13)   R19       5
    C15(13)   R20       6
    C16(11)   OBJ       -10
    C16(11)   R0        -1
    C16(11)   R1        9
    C16(11)   R2        -1
    C16(11)   R5        6
    C16(11)   R7        -1
    C16(11)   R8        10
    C16(11)   R9        1
    C16(11)   R10       -1
    C16(11)   R11       8
    C16(11)   R15       8
    C16(11)   R17       13
    C17(9)    OBJ       -2
    C17(9)    R0        -9
    C17(9)    R1        -9
    C17(9)    R4        2
    C17(9)    R7        15
    C17(9)    R8        10
    C17(9)    R14       4
    C17(9)    R15       15
    C17(9)    R18       4
    C17(9)    R19       10
    C18(12)   OBJ       -5
    C18(12)   R0        8
    C18(12)   R1        -1
    C18(12)   R3        -1
    C18(12)   R5        9
    C18(12)   R6        6
    C18(12)   R8        16
    C18(12)   R11       -1
    C18(12)   R12       1
    C18(12)   R13       19
    C18(12)   R14       4
    C18(12)   R17       17
    C18(12)   R19       2
    C19(11)   OBJ       6
    C19(11)   R0        -9
    C19(11)   R1        -6
    C19(11)   R2        16
    C19(11)   R5        6
    C19(11)   R8        2
    C19(11)   R9        3
    C19(11)   R10       3
    C19(11)   R11       7
    C19(11)   R13       17
    C19(11)   R15       9
    C19(11)   R16       5
    C20(1)    R2        1
    C21(1)    R3        1
    C22(1)    R4        1
    C23(1)    R5        1
    C24(1)    R6        1
    C25(1)    R7        1
    C26(1)    R8        1
    C27(1)    R9        1
    C28(1)    R10       1
    C29(1)    R11       1
    C30(1)    R12       1
    C31(1)    R13       1
    C32(1)    R14       1
    C33(1)    R15       1
    C34(1)    R16       1
    C35(1)    R17       1
    C36(1)    R18       1
    C37(1)    R19       1
    C38(1)    R20       1
    C39(1)    R21       1
RHS
    RHS1      R0        3.6365048521468469e+02
    RHS1      R1        1.2267199945070037e+02
    RHS1      R2        63
    RHS1      R3        94
    RHS1      R4        93
    RHS1      R5        93
    RHS1      R6        56
    RHS1      R7        76
    RHS1      R8        78
    RHS1      R9        99
    RHS1      R10       67
    RHS1      R11       50
    RHS1      R12       73
    RHS1      R13       80
    RHS1      R14       59
    RHS1      R15       74
    RHS1      R16       68
    RHS1      R17       67
    RHS1      R18       91
    RHS1      R19       63
    RHS1      R20       69
    RHS1      R21       4
BOUNDS
 UP BND1      I0(9)     1
 UP BND1      I1(12)    1
 UP BND1      I2(7)     1
 UP BND1      I3(9)     1
 UP BND1      I4(7)     1
 UP BND1      I5(10)    1
 UP BND1      I6(7)     1
 UP BND1      I7(9)     1
 UP BND1      I8(7)     1
 UP BND1      I9(10)    1
 UP BND1      I10(8)    1
 UP BND1      I11(13)   1
ENDATA
